NAME : in_house_8_13
TYPE : TSP
DIMENSION : 8
EDGE_WEIGHT_TYPE : EXPLICIT
EDGE_WEIGHT_FORMAT : UPPER_ROW
COMMENT : INVERSION_SHIFT=2
EDGE_WEIGHT_SECTION
34
26
13
58
63
39
63
59
4
39
59
6
3
23
48
63
9
46
30
12
53
25
23
42
34
27
59
56
